problems/csplib-prob036/FixedLengthErrorCorrectingCodes-models/compact/O2/lingeling/model-p6-solution000001.eprime-solution
language ESSENCE' 1.0

letting c_ExplicitR9_Function1D be
        [[1, 4, 4, 3, 3, 1, 4, 4; int(1..8)], [2, 4, 4, 1, 4, 3, 4, 4; int(1..8)], [3, 4, 4, 1, 3, 2, 3, 4; int(1..8)],
         [3, 4, 4, 2, 1, 4, 4, 4; int(1..8)]; int(1..4)]
