problems/csplib-prob036/FixedLengthErrorCorrectingCodes-models/compact/O2/lingeling/model-p6-solution000001.solution
language Essence 1.3

letting c be
        {function(1 --> a, 2 --> d, 3 --> d, 4 --> c, 5 --> c, 6 --> a, 7 --> d, 8 --> d),
         function(1 --> b, 2 --> d, 3 --> d, 4 --> a, 5 --> d, 6 --> c, 7 --> d, 8 --> d),
         function(1 --> c, 2 --> d, 3 --> d, 4 --> a, 5 --> c, 6 --> b, 7 --> c, 8 --> d),
         function(1 --> c, 2 --> d, 3 --> d, 4 --> b, 5 --> a, 6 --> d, 7 --> d, 8 --> d)}
